8 4 1 1 111111
15 2 1 3 4 2 2 3 7 4 5 2 2 3 4 3 2 2 2 4 7 1 4 2 1 2 2 2 1 3 3 3 1 1 1 2 1 1 3 3 1 1 7 1 3 3 2 1 6 4 5 2 3 1 4 5 2 3 5 4 7 1 3 6 
15 2 2 3 4 1 2 2 7 3 1 1 1 7 1 3 6 1 3 4 1 1 4 2 1 4 2 6 2 1 4 3 3 2 2 2 3 4 2 1 5 3 7 1 3 1 1 2 7 2 1 1 4 6 2 3 2 4 5 2 1 1 4 3 
15 1 1 5 1 1 5 1 1 2 2 1 4 2 6 1 1 4 1 4 7 2 1 4 3 6 2 1 6 4 1 1 1 1 1 1 7 2 1 5 3 5 2 3 6 4 7 2 3 7 4 2 2 2 3 4 1 1 2 5 
15 2 1 5 4 5 2 1 1 2 5 2 2 4 3 2 1 3 5 2 2 2 3 2 1 3 7 2 3 2 4 2 2 2 6 3 3 2 3 5 4 2 2 1 7 4 4 2 3 1 4 4 2 1 5 4 1 2 1 4 4 4 2 2 4 4 4 1 1 4 
15 2 2 6 4 4 2 1 3 3 1 1 1 2 1 2 5 1 4 4 2 2 2 4 6 2 2 7 4 3 2 1 6 4 2 2 2 2 3 1 1 2 3 2 1 5 2 7 1 1 2 2 2 7 4 6 2 1 7 3 3 1 4 3 
15 1 2 1 2 1 2 3 4 2 3 2 4 7 2 2 6 4 7 1 2 3 2 1 2 4 3 1 2 5 2 1 6 4 3 2 1 4 2 2 2 1 7 2 6 2 1 1 3 5 2 3 1 4 3 1 1 1 2 2 1 3 5 2 2 5 4 1 
15 1 3 4 2 1 1 2 7 1 3 3 2 1 2 3 6 1 2 3 1 3 5 2 1 7 2 3 2 2 4 4 7 2 2 4 4 6 2 2 3 3 2 1 1 2 2 2 3 3 6 2 1 2 2 5 1 1 6 1 4 5 
15 2 1 7 3 6 1 1 7 2 3 5 4 6 1 1 5 2 1 4 4 3 1 1 6 2 1 3 2 4 2 2 6 3 5 2 3 2 4 2 1 1 4 1 2 3 2 1 2 4 3 2 1 3 4 1 2 1 4 4 3 2 3 5 4 2 
0 3 1 2 6 
1 0 2 3 5 
1 0 1 4 
1 1 1 8 
1 2 1 9 
1 1 1 11 
1 0 1 7 
1 6 1 11 
1 3 2 13 14 
1 4 2 10 13 
1 9 1 12 
2 5 7 1 14 
1 10 0 
2 9 8 0 
2 11 8 0 
0 3 16 18 20 
1 15 1 19 
0 1 21 
1 15 2 24 25 
1 16 1 26 
1 15 1 23 
1 17 1 24 
0 1 26 
1 20 1 27 
2 18 21 1 29 
1 18 1 29 
2 22 19 1 28 
1 23 1 29 
1 26 0 
3 27 24 25 0 
0 1 31 
1 30 1 35 
0 3 33 34 35 
1 32 1 40 
1 32 1 42 
2 31 32 1 38 
0 1 37 
1 36 1 39 
1 35 1 43 
1 37 1 42 
1 33 2 41 42 
1 40 1 44 
3 34 39 40 1 43 
2 42 38 1 44 
2 43 41 0 
0 1 46 
1 45 1 52 
0 1 48 
1 47 1 51 
0 2 50 53 
1 49 1 58 
1 48 1 56 
1 46 1 57 
1 49 3 54 55 57 
1 53 1 56 
1 53 1 56 
3 54 55 51 1 59 
2 52 53 1 59 
1 50 1 59 
3 56 57 58 0 
0 3 61 62 63 
1 60 1 64 
1 60 1 66 
1 60 1 67 
1 61 2 69 74 
0 1 67 
1 62 1 69 
2 63 65 1 68 
1 67 1 72 
2 66 64 1 73 
0 1 71 
1 70 1 73 
1 68 1 74 
2 71 69 0 
2 64 72 0 
0 2 78 80 
0 1 77 
1 76 2 79 81 
1 75 1 81 
1 77 1 83 
1 75 1 87 
2 78 77 1 85 
0 1 87 
1 79 2 84 88 
1 83 1 89 
1 81 1 86 
1 85 0 
2 82 80 1 88 
2 83 87 0 
1 84 0 
0 2 91 92 
1 90 1 96 
1 90 1 97 
0 2 94 99 
1 93 1 103 
0 1 99 
1 91 2 98 102 
1 92 1 98 
2 96 97 1 101 
2 95 93 1 100 
1 99 1 104 
1 98 0 
1 96 1 103 
2 102 94 1 104 
2 103 100 0 
0 3 106 115 116 
1 105 2 107 108 
1 106 2 109 111 
1 106 1 112 
1 107 2 110 117 
1 109 1 114 
1 107 1 113 
1 108 1 113 
2 112 111 0 
1 110 1 119 
1 105 1 117 
1 105 1 119 
2 109 115 1 118 
1 117 0 
2 114 116 0 
